
******************************************************************************
This program contains Ipopt, a library for large-scale nonlinear optimization.
 Ipopt is released as open source code under the Eclipse Public License (EPL).
         For more information visit http://projects.coin-or.org/Ipopt

This version of Ipopt was compiled from source code available at
    https://github.com/IDAES/Ipopt as part of the Institute for the Design of
    Advanced Energy Systems Process Systems Engineering Framework (IDAES PSE
    Framework) Copyright (c) 2018-2019. See https://github.com/IDAES/idaes-pse.

This version of Ipopt was compiled using HSL, a collection of Fortran codes
    for large-scale scientific computation.  All technical papers, sales and
    publicity material resulting from use of the HSL codes within IPOPT must
    contain the following acknowledgement:
        HSL, a collection of Fortran codes for large-scale scientific
        computation. See http://www.hsl.rl.ac.uk.
******************************************************************************

This is Ipopt version 3.13.2, running with linear solver ma27.

Number of nonzeros in equality constraint Jacobian...:     1084
Number of nonzeros in inequality constraint Jacobian.:        0
Number of nonzeros in Lagrangian Hessian.............:     1088

Total number of variables............................:      448
                     variables with only lower bounds:      128
                variables with lower and upper bounds:      256
                     variables with only upper bounds:        0
Total number of equality constraints.................:      446
Total number of inequality constraints...............:        0
        inequality constraints with only lower bounds:        0
   inequality constraints with lower and upper bounds:        0
        inequality constraints with only upper bounds:        0

iter    objective    inf_pr   inf_du lg(mu)  ||d||  lg(rg) alpha_du alpha_pr  ls
   0  0.0000000e+00 3.27e-01 3.20e-14  -1.0 0.00e+00    -  0.00e+00 0.00e+00   0
   1  1.2937289e-02 2.20e-01 3.83e+04  -1.0 3.55e+04    -  6.74e-01 2.60e-01h  1
   2  1.3516888e-02 2.18e-01 3.85e+04  -1.0 4.31e+04    -  8.46e-01 8.85e-03h  1
   3  3.6191012e+00 9.99e-01 1.22e+05  -1.0 1.29e+05    -  8.16e-01 9.31e-01h  1
   4  4.5173297e+00 6.48e-01 7.86e+04  -1.0 4.07e+04    -  9.42e-01 3.52e-01h  1
   5  6.4553626e+00 8.74e-03 5.32e+03  -1.0 2.70e+04    -  9.68e-01 9.90e-01h  1
   6  6.5093374e+00 9.35e-05 8.28e+03  -1.0 7.19e+02    -  7.20e-01 9.90e-01h  1
   7  6.5106420e+00 9.18e-07 5.17e+05  -1.0 4.00e+02    -  8.20e-01 9.90e-01h  1
   8  6.5105652e+00 8.87e-07 7.05e+07  -1.0 8.31e+03    -  2.65e-01 3.09e-02h  6
   9  6.5166198e+00 3.29e-06 1.61e+08  -1.0 3.68e+03    -  4.74e-01 9.90e-01H  1
iter    objective    inf_pr   inf_du lg(mu)  ||d||  lg(rg) alpha_du alpha_pr  ls
  10  6.5166407e+00 3.28e-06 1.55e+10  -1.0 1.14e+04    -  5.01e-01 1.93e-03h 10
  11  6.5166839e+00 3.28e-06 3.07e+10  -1.0 1.41e+04    -  4.88e-01 1.93e-03h 10
  12  6.5167010e+00 3.28e-06 4.07e+10  -1.0 2.61e+04    -  3.20e-01 4.83e-04h 12
  13  6.5167247e+00 3.28e-06 5.36e+10  -1.0 2.07e+04    -  4.11e-01 4.83e-04h 12
  14  6.5167333e+00 3.28e-06 6.27e+10  -1.0 2.78e+04    -  2.88e-01 1.21e-04h 14
  15  6.5167707e+00 3.28e-06 7.50e+10  -1.0 2.19e+04    -  3.93e-01 4.83e-04h 12
  16  6.5168239e+00 3.28e-06 8.36e+10  -1.0 2.62e+04    -  2.73e-01 4.83e-04h 12
  17  6.5168719e+00 3.27e-06 9.57e+10  -1.0 2.24e+04    -  3.85e-01 4.83e-04h 12
  18  6.5169393e+00 3.27e-06 1.04e+11  -1.0 2.47e+04    -  2.65e-01 4.83e-04h 12
  19  6.5169936e+00 3.27e-06 1.16e+11  -1.0 2.27e+04    -  3.80e-01 4.83e-04h 12
iter    objective    inf_pr   inf_du lg(mu)  ||d||  lg(rg) alpha_du alpha_pr  ls
  20  6.7232967e+00 1.06e-03 2.19e+10  -1.0 2.39e+04    -  2.60e-01 9.90e-01w  1
  21  6.7171029e+00 6.32e-06 3.14e+10  -1.0 4.15e+02    -  1.00e+00 9.90e-01w  1
In iteration 21, 32 Slacks too small, adjusting variable bounds
  22  6.7157807e+00 7.35e-08 3.16e+12  -1.0 1.44e+02    -  1.00e+00 9.90e-01h  1
  23  6.7157582e+00 2.24e-10 1.56e-02  -1.0 2.12e+00    -  1.00e+00 1.00e+00h  1
  24  6.7097633e+00 4.55e-08 3.22e+12  -9.0 9.55e+03    -  9.95e-01 2.50e-02f  6
  25  6.7081202e+00 5.17e-08 3.21e+12  -9.0 1.42e+04    -  9.95e-01 7.15e-03f  8
  26  6.7063853e+00 6.30e-08 3.19e+12  -9.0 1.67e+04    -  9.97e-01 7.46e-03f  8
  27  6.7054935e+00 6.64e-08 3.17e+12  -9.0 1.82e+04    -  1.00e+00 3.80e-03f  9
  28  6.7052663e+00 6.66e-08 3.17e+12  -9.0 1.92e+04    -  1.00e+00 9.59e-04f 11
  29  6.5038458e+00 5.76e-04 3.94e+10  -9.0 1.99e+04    -  1.00e+00 9.88e-01f  1
iter    objective    inf_pr   inf_du lg(mu)  ||d||  lg(rg) alpha_du alpha_pr  ls
  30  6.5059236e+00 5.45e-06 1.04e+00  -9.0 2.20e+03    -  1.00e+00 1.00e+00h  1
  31  6.5059312e+00 9.18e-07 2.58e-02  -9.0 5.66e+02    -  1.00e+00 1.00e+00h  1
  32  6.5059339e+00 5.66e-09 1.21e-04  -9.0 4.78e+01    -  1.00e+00 1.00e+00h  1
  33  6.5059339e+00 6.38e-10 7.86e-09  -9.0 3.53e-01    -  1.00e+00 1.00e+00h  1

Number of Iterations....: 33

                                   (scaled)                 (unscaled)
Objective...............:   6.5059338840928298e+00    6.5059338840928298e+00
Dual infeasibility......:   7.8621426524307210e-09    7.8621426524307210e-09
Constraint violation....:   6.3760374757748650e-10    6.3760374757748650e-10
Complementarity.........:   9.2389721446970887e-10    9.2389721446970887e-10
Overall NLP error.......:   6.3760374757748650e-10    7.8621426524307210e-09


Number of objective function evaluations             = 245
Number of objective gradient evaluations             = 34
Number of equality constraint evaluations            = 245
Number of inequality constraint evaluations          = 0
Number of equality constraint Jacobian evaluations   = 34
Number of inequality constraint Jacobian evaluations = 0
Number of Lagrangian Hessian evaluations             = 33
Total CPU secs in IPOPT (w/o function evaluations)   =      0.055
Total CPU secs in NLP function evaluations           =      1.630

EXIT: Optimal Solution Found.
